param set_len = 20;
param target_sum = 1579763074;
param values := [1] 112239043 [2] 437177935 [3] 105956026 [4] 325961961 [5] 514598245 [6] 48311337 [7] 357031483 [8] 110646580 [9] 343528890 [10] 102679414 [11] 456872082 [12] 320978443 [13] 225049827 [14] 390794792 [15] 60763658 [16] 510053703 [17] 57236572 [18] 59039184 [19] 91759913 [20] 35055570 ;
